2117949
1 7 35812
7 2 108022
2 3 14475
3 17 20583
17 13 27808
13 9 45504
9 12 50021
12 11 123741
11 20 34792
20 5 53722
5 18 90145
18 14 103707
14 8 61569
8 15 67784
15 19 105166
19 4 238489
4 16 223220
16 10 21150
10 6 253562
6 1 438677
